MARKOV
229
2 2 2 2 2 2 2 2 2 2 2 2 2 2 2 2 2 2 2 2 2 2 2 2 2 2 2 2 2 2 2 2 2 2 2 2 2 2 2 2 2 2 2 2 2 2 2 2 2 2 2 2 2 2 2 2 2 2 2 2 2 2 2 2 2 2 2 2 2 2 2 2 2 2 2 2 2 2 2 2 2 2 2 2 2 2 2 2 2 2 2 2 2 2 2 2 2 2 2 2 2 2 2 2 2 2 2 2 2 2 2 2 2 2 2 2 2 2 2 2 2 2 2 2 2 2 2 2 2 2 2 2 2 2 2 2 2 2 2 2 2 2 2 2 2 2 2 2 2 2 2 2 2 2 2 2 2 2 2 2 2 2 2 2 2 2 2 2 2 2 2 2 2 2 2 2 2 2 2 2 2 2 2 2 2 2 2 2 2 2 2 2 2 2 2 2 2 2 2 2 2 2 2 2 2 2 2 2 2 2 2 2 2 2 2 2 2 2 2 2 2 2 2 2 2 2 2 2 2
851
1	0
1	1
1	2
1	3
1	4
1	5
1	6
1	7
1	8
1	9
1	10
1	11
1	12
1	13
1	14
1	15
1	16
1	17
1	18
1	19
1	20
1	21
1	22
1	23
1	24
1	25
1	26
1	27
1	28
1	29
1	30
1	31
1	32
1	33
1	34
1	35
1	36
1	37
1	38
1	39
1	40
1	41
1	42
1	43
1	44
1	45
1	46
1	47
1	48
1	49
1	50
1	51
1	52
1	53
1	54
1	55
1	56
1	57
1	58
1	59
1	60
1	61
1	62
1	63
1	64
1	65
1	66
1	67
1	68
1	69
1	70
1	71
1	72
1	73
1	74
1	75
1	76
1	77
1	78
1	79
1	80
1	81
1	82
1	83
1	84
1	85
1	86
1	87
1	88
1	89
1	90
1	91
1	92
1	93
1	94
1	95
1	96
1	97
1	98
1	99
1	100
1	101
1	102
1	103
1	104
1	105
1	106
1	107
1	108
1	109
1	110
1	111
1	112
1	113
1	114
1	115
1	116
1	117
1	118
1	119
1	120
1	121
1	122
1	123
1	124
1	125
1	126
1	127
1	128
1	129
1	130
1	131
1	132
1	133
1	134
1	135
1	136
1	137
1	138
1	139
1	140
1	141
1	142
1	143
1	144
1	145
1	146
1	147
1	148
1	149
1	150
1	151
1	152
1	153
1	154
1	155
1	156
1	157
1	158
1	159
1	160
1	161
1	162
1	163
1	164
1	165
1	166
1	167
1	168
1	169
1	170
1	171
1	172
1	173
1	174
1	175
1	176
1	177
1	178
1	179
1	180
1	181
1	182
1	183
1	184
1	185
1	186
1	187
1	188
1	189
1	190
1	191
1	192
1	193
1	194
1	195
1	196
1	197
1	198
1	199
1	200
1	201
1	202
1	203
1	204
1	205
1	206
1	207
1	208
1	209
1	210
1	211
1	212
1	213
1	214
1	215
1	216
1	217
1	218
1	219
1	220
1	221
1	222
1	223
1	224
1	225
1	226
1	227
1	228
2	2	1
2	4	1
2	97	1
2	99	1
2	4	2
2	5	2
2	97	2
2	102	2
2	149	2
2	4	3
2	5	3
2	71	3
2	72	3
2	5	4
2	71	5
2	149	5
2	150	5
2	7	6
2	8	6
2	9	6
2	10	6
2	118	6
2	119	6
2	8	7
2	31	7
2	118	7
2	132	7
2	10	8
2	31	8
2	32	8
2	221	8
2	10	9
2	79	9
2	119	9
2	154	9
2	36	10
2	79	10
2	80	10
2	221	10
2	222	10
2	12	11
2	14	11
2	15	11
2	16	11
2	82	11
2	83	11
2	129	11
2	203	11
2	206	11
2	13	12
2	16	12
2	17	12
2	83	12
2	84	12
2	88	12
2	142	12
2	86	13
2	88	13
2	142	13
2	173	13
2	174	13
2	15	14
2	16	14
2	16	15
2	17	15
2	128	15
2	129	15
2	17	16
2	128	17
2	141	17
2	142	17
2	19	18
2	20	18
2	21	18
2	143	18
2	144	18
2	176	18
2	179	18
2	20	19
2	21	19
2	57	19
2	59	19
2	74	19
2	74	20
2	75	20
2	134	20
2	179	20
2	57	21
2	120	21
2	144	21
2	23	22
2	25	22
2	27	22
2	51	22
2	52	22
2	54	22
2	55	22
2	112	22
2	24	23
2	27	23
2	54	23
2	92	23
2	110	23
2	183	23
2	199	23
2	26	24
2	27	24
2	28	24
2	90	24
2	92	24
2	125	24
2	26	25
2	27	25
2	28	25
2	112	25
2	114	25
2	27	26
2	28	26
2	114	28
2	125	28
2	126	28
2	30	29
2	31	29
2	32	29
2	70	29
2	131	29
2	32	30
2	69	30
2	70	30
2	221	30
2	224	30
2	32	31
2	129	31
2	131	31
2	132	31
2	221	32
2	34	33
2	48	33
2	50	33
2	136	33
2	165	33
2	35	34
2	122	34
2	136	34
2	139	34
2	165	34
2	38	35
2	39	35
2	122	35
2	123	35
2	139	35
2	37	36
2	38	36
2	39	36
2	80	36
2	222	36
2	39	37
2	123	37
2	222	37
2	223	37
2	39	38
2	78	38
2	80	38
2	139	38
2	123	39
2	41	40
2	42	40
2	43	40
2	46	40
2	42	41
2	43	41
2	72	41
2	73	41
2	225	41
2	45	42
2	46	42
2	76	42
2	77	42
2	225	42
2	227	42
2	72	43
2	47	44
2	133	44
2	208	44
2	46	45
2	47	45
2	76	45
2	135	45
2	47	46
2	133	47
2	135	47
2	49	48
2	50	48
2	164	48
2	165	48
2	50	49
2	51	49
2	55	49
2	56	49
2	158	49
2	164	49
2	51	50
2	136	50
2	138	50
2	55	51
2	112	51
2	138	51
2	53	52
2	54	52
2	55	52
2	56	52
2	54	53
2	56	53
2	161	53
2	186	53
2	193	53
2	194	53
2	180	54
2	183	54
2	186	54
2	56	55
2	158	56
2	161	56
2	58	57
2	59	57
2	60	57
2	61	57
2	120	57
2	121	57
2	60	58
2	61	58
2	151	58
2	153	58
2	170	58
2	61	59
2	74	59
2	168	59
2	119	60
2	121	60
2	153	60
2	154	60
2	168	61
2	170	61
2	65	62
2	66	62
2	81	62
2	82	62
2	64	63
2	66	63
2	67	63
2	65	64
2	66	64
2	67	64
2	202	64
2	204	64
2	66	65
2	82	65
2	203	65
2	204	65
2	202	67
2	69	68
2	70	68
2	207	68
2	70	69
2	224	69
2	131	70
2	205	70
2	207	70
2	72	71
2	73	71
2	150	71
2	73	72
2	150	73
2	225	73
2	226	73
2	75	74
2	76	74
2	77	74
2	168	74
2	76	75
2	134	75
2	135	75
2	77	76
2	135	76
2	168	77
2	227	77
2	79	78
2	80	78
2	137	78
2	139	78
2	152	78
2	80	79
2	152	79
2	154	79
2	82	81
2	83	81
2	89	81
2	83	82
2	203	82
2	84	83
2	89	83
2	85	84
2	88	84
2	89	84
2	87	85
2	88	85
2	89	85
2	87	86
2	88	86
2	173	86
2	218	86
2	219	86
2	88	87
2	218	87
2	91	90
2	92	90
2	125	90
2	145	90
2	146	90
2	92	91
2	102	91
2	103	91
2	145	91
2	94	92
2	103	92
2	105	92
2	110	92
2	95	93
2	96	93
2	106	93
2	95	94
2	98	94
2	103	94
2	104	94
2	105	94
2	96	95
2	98	95
2	100	95
2	104	95
2	106	95
2	107	95
2	100	96
2	99	97
2	101	97
2	102	97
2	100	98
2	101	98
2	103	98
2	100	99
2	101	99
2	101	100
2	102	101
2	103	101
2	103	102
2	145	102
2	149	102
2	105	104
2	107	104
2	108	104
2	109	104
2	110	104
2	110	105
2	107	106
2	109	106
2	109	107
2	109	108
2	110	108
2	111	108
2	198	108
2	200	108
2	111	109
2	199	110
2	200	110
2	198	111
2	113	112
2	114	112
2	138	112
2	114	113
2	115	113
2	137	113
2	138	113
2	155	113
2	156	113
2	115	114
2	126	114
2	124	115
2	126	115
2	155	115
2	117	116
2	212	116
2	214	116
2	216	116
2	171	117
2	209	117
2	216	117
2	119	118
2	120	118
2	121	118
2	130	118
2	132	118
2	121	119
2	154	119
2	121	120
2	130	120
2	144	120
2	123	122
2	163	122
2	165	122
2	126	124
2	127	124
2	151	124
2	155	124
2	169	124
2	170	124
2	126	125
2	127	125
2	146	125
2	147	125
2	127	126
2	147	127
2	169	127
2	228	127
2	129	128
2	130	128
2	132	128
2	141	128
2	131	129
2	132	129
2	206	129
2	132	130
2	141	130
2	144	130
2	205	131
2	206	131
2	134	133
2	135	133
2	178	133
2	208	133
2	135	134
2	178	134
2	179	134
2	137	136
2	138	136
2	139	136
2	138	137
2	139	137
2	152	137
2	156	137
2	141	140
2	142	140
2	143	140
2	144	140
2	174	140
2	142	141
2	144	141
2	174	142
2	144	143
2	174	143
2	175	143
2	176	143
2	146	145
2	148	145
2	149	145
2	147	146
2	148	146
2	148	147
2	150	147
2	226	147
2	228	147
2	149	148
2	150	148
2	150	149
2	226	150
2	153	151
2	155	151
2	156	151
2	170	151
2	153	152
2	154	152
2	156	152
2	154	153
2	156	153
2	156	155
2	158	157
2	159	157
2	160	157
2	162	157
2	164	157
2	167	157
2	161	158
2	162	158
2	164	158
2	160	159
2	167	159
2	162	160
2	195	160
2	196	160
2	162	161
2	194	161
2	197	161
2	196	162
2	197	162
2	165	163
2	166	163
2	165	164
2	166	164
2	167	164
2	166	165
2	167	166
2	169	168
2	170	168
2	227	168
2	170	169
2	227	169
2	228	169
2	172	171
2	177	171
2	209	171
2	210	171
2	216	171
2	173	172
2	175	172
2	177	172
2	216	172
2	217	172
2	219	172
2	174	173
2	175	173
2	219	173
2	175	174
2	176	175
2	177	175
2	177	176
2	179	176
2	178	177
2	179	177
2	210	177
2	179	178
2	210	178
2	181	180
2	183	180
2	184	180
2	186	180
2	182	181
2	183	181
2	184	181
2	200	181
2	201	181
2	184	182
2	185	182
2	201	182
2	199	183
2	200	183
2	185	184
2	186	184
2	187	184
2	187	185
2	188	185
2	187	186
2	193	186
2	188	187
2	190	187
2	193	187
2	189	188
2	190	188
2	190	189
2	191	189
2	191	190
2	193	190
2	196	190
2	197	190
2	192	191
2	195	191
2	196	191
2	195	192
2	194	193
2	197	194
2	196	195
2	197	196
2	200	198
2	201	198
2	200	199
2	201	200
2	204	202
2	207	202
2	204	203
2	205	203
2	206	203
2	205	204
2	207	204
2	206	205
2	207	205
2	209	208
2	210	208
2	210	209
2	212	211
2	213	211
2	217	211
2	220	211
2	213	212
2	214	212
2	216	212
2	217	212
2	214	213
2	215	213
2	215	214
2	217	216
2	219	217
2	220	217
2	219	218
2	220	218
2	220	219
2	222	221
2	223	221
2	224	221
2	223	222
2	224	223
2	226	225
2	227	225
2	227	226
2	228	226
2	228	227

2
0.252912 1

2
1 0.23618

2
1 0.197368

2
1 0.377452

2
1 0.249047

2
1 0.139661

2
1 0.533182

2
1 0.716172

2
1 0.341691

2
1 0.545353

2
1 0.654242

2
1 0.199866

2
1 0.505335

2
1 0.267394

2
1 0.162028

2
1 0.61834

2
1 0.254636

2
0.664573 1

2
1 0.413595

2
1 0.462304

2
1 0.556266

2
1 0.881781

2
1 0.264401

2
3.36468e-06 1

2
1 0.418826

2
1 0.409634

2
1 0.26027

2
1 0.122828

2
1 0.200456

2
1 0.43131

2
1 0.285117

2
1 0.391091

2
1 0.149385

2
1 0.568216

2
1 0.589021

2
1 0.350718

2
1 0.150509

2
1 0.114873

2
1 0.179525

2
1 0.183301

2
1 0.214507

2
1 0.447249

2
1 0.472879

2
1 0.252434

2
1 0.945478

2
1 0.570039

2
1 0.925074

2
1 0.655055

2
1 0.379693

2
1 0.528971

2
1 0.263857

2
1 0.439118

2
1 0.149208

2
1 0.176703

2
1 0.226942

2
1 0.30012

2
1 0.271764

2
1 0.631937

2
1 0.234462

2
1 0.455798

2
1 0.417941

2
1 0.545052

2
1 0.0267112

2
1 0.0361558

2
1 0.0542515

2
1 0.109768

2
1 0.0372216

2
1 0.0355713

2
1 0.132355

2
1 0.61565

2
1 0.281763

2
1 0.533895

2
1 0.322968

2
1 0.579491

2
1 0.457684

2
1 0.660161

2
1 0.490332

2
0.692466 1

2
1 0.293888

2
1 0.224908

2
1 0.163466

2
1 0.0314731

2
1 0.0966258

2
1 0.0435056

2
1 0.0588733

2
1 0.0318614

2
1 0.0889382

2
1 0.0492661

2
1 0.0618432

2
1 0.049687

2
1 0.609008

2
0.614596 1

2
1 0.894809

2
1 0.0753411

2
1 0.406547

2
1 0.0933299

2
1 0.130847

2
1 0.246432

2
1 0.120228

2
1 0.0745217

2
1 0.248172

2
1 0.150014

2
1 0.711015

2
1 0.345253

2
1 0.153974

2
1 0.455894

2
1 0.17028

2
1 0.0807316

2
1 0.128712

2
1 0.129882

2
0.826352 1

2
1 0.102692

2
1 0.348354

2
1 0.417404

2
1 0.46764

2
1 0.865352

2
1 0.125187

2
1 0.0813436

2
1 0.38684

2
1 0.546168

2
1 0.587722

2
1 0.60338

2
1 0.628481

2
1 0.501215

2
1 0.409974

2
1 0.749595

2
1 0.505225

2
1 0.396456

2
1 0.250308

2
1 0.491274

2
1 0.644973

2
1 0.1617

2
1 0.336695

2
1 0.348282

2
0.766034 1

2
1 0.29418

2
1 0.523474

2
1 0.587933

2
1 0.367897

2
1 0.277971

2
1 0.198355

2
1 0.51853

2
0.665144 1

2
1 0.291351

2
0.925781 1

2
1 0.605104

2
1 0.110101

2
1 0.216279

2
1 0.386727

2
1 0.953951

2
1 0.341367

2
1 0.466818

2
1 0.443775

2
1 0.367933

2
1 0.391371

2
1 0.462754

2
1 0.476311

2
1 0.101162

2
1 0.492767

2
1 0.0675181

2
1 0.0457619

2
1 0.329049

2
1 0.112711

2
1 0.0955617

2
1 0.459672

2
1 0.270196

2
1 0.119884

2
1 0.124219

2
1 0.243553

2
1 0.31395

2
1 0.198365

2
1 0.186283

2
1 0.439896

2
1 0.219436

2
1 0.671054

2
1 0.497868

2
1 0.29034

2
1 0.46308

2
1 0.208849

2
1 0.605549

2
1 0.0909285

2
1 0.276459

2
1 0.0993307

2
1 0.499214

2
1 0.204503

2
1 0.291718

2
1 0.433213

2
1 0.134207

2
1 0.156368

2
1 0.100012

2
1 0.0645973

2
1 0.0871912

2
1 0.0929272

2
1 0.137917

2
1 0.114183

2
1 0.0754327

2
1 0.0878057

2
1 0.0505131

2
1 0.156379

2
1 0.364014

2
1 0.0821063

2
1 0.204205

2
1 0.0543928

2
1 0.129625

2
1 0.127034

2
1 0.282029

2
1 0.461627

2
1 0.0258061

2
1 0.447207

2
1 0.373832

2
1 0.631526

2
1 0.0542204

2
1 0.0252525

2
1 0.0213335

2
1 0.0342251

2
1 0.0344091

2
1 0.0939733

2
1 0.0414581

2
1 0.144425

2
1 0.0816788

2
1 0.0299026

2
1 0.183993

2
1 0.148175

2
1 0.180403

2
1 0.256819

2
1 0.389145

2
1 0.417438

2
1 0.497623

2
1 0.346157

4
1 0.345232 0.345232 0.969048

4
1 0.348243 0.348243 0.968927

4
1 0.346619 0.346619 0.966155

4
1 0.351095 0.351095 0.962691

4
1 0.343764 0.343764 0.972132

4
1 0.339675 0.339675 0.975365

4
1 0.34216 0.34216 0.969351

4
1 0.338484 0.338484 0.970642

4
1 0.337328 0.337328 0.974212

4
1 0.345415 0.345415 0.975203

4
1 0.341305 0.341305 0.978446

4
1 0.339399 0.339399 0.981441

4
1 0.341481 0.341481 0.981365

4
1 0.342638 0.342638 0.975243

4
1 0.336671 0.336671 0.981482

4
1 0.336223 0.336223 0.97733

4
1 0.334169 0.334169 0.981439

4
0.962651 0.264721 0.264721 1

4
0.963709 0.26302 0.26302 1

4
0.96867 0.269016 0.269016 1

4
0.967037 0.265285 0.265285 1

4
0.965294 0.268705 0.268705 1

4
0.969253 0.271564 0.271564 1

4
0.960571 0.260889 0.260889 1

4
0.956739 0.259497 0.259497 1

4
0.962151 0.266528 0.266528 1

4
0.957378 0.262389 0.262389 1

4
0.964948 0.261444 0.261444 1

4
0.95779 0.25783 0.25783 1

4
0.958583 0.255882 0.255882 1

4
0.960545 0.255952 0.255952 1

4
0.969916 0.267404 0.267404 1

4
0.974198 0.27276 0.27276 1

4
0.972137 0.273733 0.273733 1

4
0.975495 0.27609 0.27609 1

4
0.970298 0.263262 0.263262 1

4
0.972556 0.268977 0.268977 1

4
0.972053 0.26664 0.26664 1

4
0.963862 0.258156 0.258156 1

4
0.967192 0.260379 0.260379 1

4
0.941595 0.257484 0.257484 1

4
0.939935 0.252345 0.252345 1

4
0.943466 0.255719 0.255719 1

4
0.941028 0.255069 0.255069 1

4
0.935334 0.248839 0.248839 1

4
0.936484 0.251942 0.251942 1

4
0.943285 0.253056 0.253056 1

4
0.936713 0.247456 0.247456 1

4
0.939993 0.25024 0.25024 1

4
0.947484 0.268435 0.268435 1

4
0.944373 0.261222 0.261222 1

4
0.947646 0.264669 0.264669 1

4
0.939813 0.25802 0.25802 1

4
0.942217 0.261788 0.261788 1

4
0.944178 0.265448 0.265448 1

4
0.94944 0.268252 0.268252 1

4
0.948253 0.273566 0.273566 1

4
0.946718 0.270219 0.270219 1

4
0.951995 0.273073 0.273073 1

4
0.95259 0.278171 0.278171 1

4
0.952987 0.276358 0.276358 1

4
0.945151 0.256661 0.256661 1

4
0.942709 0.256008 0.256008 1

4
0.94625 0.259432 0.259432 1

4
0.949529 0.262855 0.262855 1

4
0.951943 0.262837 0.262837 1

4
0.948519 0.257385 0.257385 1

4
0.947076 0.262186 0.262186 1

4
0.952774 0.265627 0.265627 1

4
0.953945 0.26894 0.26894 1

4
0.952158 0.269242 0.269242 1

4
0.974757 0.293267 0.293267 1

4
0.973905 0.294727 0.294727 1

4
0.971345 0.288692 0.288692 1

4
0.968484 0.289013 0.289013 1

4
0.967774 0.285354 0.285354 1

4
0.969231 0.292158 0.292158 1

4
0.97198 0.295135 0.295135 1

4
0.977304 0.296695 0.296695 1

4
0.974735 0.290619 0.290619 1

4
0.978055 0.292355 0.292355 1

4
0.981237 0.298 0.298 1

4
0.982011 0.300954 0.300954 1

4
0.981152 0.302452 0.302452 1

4
0.979148 0.302368 0.302368 1

4
0.977231 0.302496 0.302496 1

4
0.97452 0.298584 0.298584 1

4
0.974631 0.287793 0.287793 1

4
0.96975 0.282584 0.282584 1

4
0.967752 0.282777 0.282777 1

4
1 0.313606 0.313606 0.975501

4
1 0.306696 0.306696 0.983725

4
1 0.3096 0.3096 0.979761

4
1 0.301124 0.301124 0.987258

4
1 0.306093 0.306093 0.980397

4
1 0.308836 0.308836 0.976811

4
1 0.30356 0.30356 0.983914

4
1 0.303116 0.303116 0.987569

4
1 0.318247 0.318247 0.975021

4
1 0.315186 0.315186 0.975125

4
1 0.314408 0.314408 0.972189

4
1 0.322167 0.322167 0.970863

4
1 0.324797 0.324797 0.965354

4
1 0.318006 0.318006 0.968306

4
1 0.320664 0.320664 0.968086

4
1 0.315325 0.315325 0.980283

4
1 0.314181 0.314181 0.979279

4
1 0.313485 0.313485 0.983468

4
1 0.31859 0.31859 0.979345

4
1 0.321139 0.321139 0.974998

4
1 0.315788 0.315788 0.983979

4
1 0.309364 0.309364 0.984356

4
1 0.308241 0.308241 0.983347

4
1 0.307559 0.307559 0.987553

4
1 0.301786 0.301786 0.991183

4
1 0.304273 0.304273 0.990671

4
1 0.312293 0.312293 0.980388

4
1 0.311601 0.311601 0.984582

4
1 0.306474 0.306474 0.990899

4
1 0.312059 0.312059 0.988294

4
1 0.308803 0.308803 0.991228

4
0.950053 0.247588 0.247588 1

4
0.952247 0.253206 0.253206 1

4
0.953035 0.251293 0.251293 1

4
0.946668 0.245775 0.245775 1

4
0.948026 0.24871 0.24871 1

4
0.952559 0.24887 0.24887 1

4
0.948539 0.242986 0.242986 1

4
0.946196 0.243406 0.243406 1

4
0.954509 0.248939 0.248939 1

4
0.952412 0.245807 0.245807 1

4
0.954759 0.254517 0.254517 1

4
0.951149 0.255578 0.255578 1

4
0.949741 0.251901 0.251901 1

4
0.954606 0.259312 0.259312 1

4
0.957504 0.252664 0.252664 1

4
0.991598 0.276435 0.276435 1

4
0.998183 0.282444 0.282444 1

4
0.997971 0.284149 0.284149 1

4
0.993559 0.280373 0.280373 1

4
0.994454 0.277189 0.277189 1

4
0.98596 0.271407 0.271407 1

4
0.986859 0.269545 0.269545 1

4
0.990564 0.277424 0.277424 1

4
0.987422 0.275368 0.275368 1

4
0.991456 0.274273 0.274273 1

4
0.981512 0.269088 0.269088 1

4
0.980023 0.265726 0.265726 1

4
0.984216 0.267455 0.267455 1

4
0.98123 0.264895 0.264895 1

4
0.984777 0.273234 0.273234 1

4
0.971706 0.259435 0.259435 1

4
0.976007 0.265835 0.265835 1

4
0.974527 0.262513 0.262513 1

4
0.974078 0.266202 0.266202 1

4
0.969206 0.259951 0.259951 1

4
0.973912 0.259122 0.259122 1

4
0.975111 0.258312 0.258312 1

4
0.968595 0.256593 0.256593 1

4
0.967388 0.253676 0.253676 1

4
0.978223 0.265514 0.265514 1

4
0.980711 0.272369 0.272369 1

4
0.977772 0.269245 0.269245 1

4
0.982967 0.273016 0.273016 1

4
0.977942 0.261377 0.261377 1

4
1 0.33415 0.33415 0.994401

4
1 0.331182 0.331182 0.998052

4
1 0.337881 0.337881 0.991373

4
1 0.334147 0.334147 0.998504

4
1 0.329373 0.329373 0.997281

4
1 0.336036 0.336036 0.990608

4
1 0.335602 0.335602 0.988972

4
1 0.331534 0.331534 0.991687

4
1 0.329039 0.329039 0.994686

4
0.995427 0.324996 0.324996 1

4
0.998606 0.328911 0.328911 1

4
0.99454 0.321891 0.321891 1

4
0.995393 0.320603 0.320603 1

4
1 0.326116 0.326116 0.998338

4
0.998681 0.322603 0.322603 1

4
1 0.339349 0.339349 0.985961

4
0.985845 0.323503 0.323503 1

4
0.98134 0.318453 0.318453 1

4
0.979152 0.318226 0.318226 1

4
0.994975 0.327757 0.327757 1

4
0.990505 0.324645 0.324645 1

4
0.990925 0.320761 0.320761 1

4
0.987912 0.319442 0.319442 1

4
0.993668 0.328555 0.328555 1

4
0.984682 0.320355 0.320355 1

4
0.986614 0.32022 0.32022 1

4
1 0.287804 0.287804 0.994775

4
1 0.286822 0.286822 0.998434

4
1 0.28338 0.28338 0.997349

4
0.998039 0.280235 0.280235 1

4
1 0.289602 0.289602 0.994986

4
1 0.292469 0.292469 0.992883

4
1 0.294835 0.294835 0.98952

4
1 0.292905 0.292905 0.988451

4
1 0.288942 0.288942 0.99

4
1 0.286128 0.286128 0.993904

4
1 0.291471 0.291471 0.996536

4
0.99693 0.285165 0.285165 1

4
0.999209 0.289001 0.289001 1

4
1 0.296737 0.296737 0.991061

4
1 0.296303 0.296303 0.994743

4
1 0.292093 0.292093 0.998677

4
1 0.302193 0.302193 0.979881

4
1 0.306876 0.306876 0.977069

4
1 0.301633 0.301633 0.984174

4
1 0.299659 0.299659 0.983111

4
1 0.304901 0.304901 0.976297

4
1 0.297731 0.297731 0.982334

4
1 0.296037 0.296037 0.981007

4
1 0.302382 0.302382 0.975772

4
1 0.299541 0.299541 0.976442

4
1 0.297842 0.297842 0.978397

4
1 0.310913 0.310913 0.970127

4
1 0.313169 0.313169 0.969607

4
1 0.307067 0.307067 0.972972

4
1 0.29718 0.29718 0.986637

4
1 0.291239 0.291239 0.987117

4
1 0.293555 0.293555 0.984241

4
0.981796 0.292184 0.292184 1

4
0.981132 0.295103 0.295103 1

4
0.978176 0.287499 0.287499 1

4
0.982138 0.294334 0.294334 1

4
0.973053 0.284272 0.284272 1

4
0.974762 0.2843 0.2843 1

4
0.982022 0.290153 0.290153 1

4
0.986 0.29705 0.29705 1

4
0.98821 0.295633 0.295633 1

4
0.985183 0.291758 0.291758 1

4
0.989508 0.299529 0.299529 1

4
0.985333 0.300017 0.300017 1

4
0.9851 0.303782 0.303782 1

4
0.988473 0.305304 0.305304 1

4
0.975558 0.280876 0.280876 1

4
0.974986 0.282324 0.282324 1

4
0.98155 0.28708 0.28708 1

4
0.978927 0.283294 0.283294 1

4
0.989487 0.304508 0.304508 1

4
0.989853 0.301733 0.301733 1

4
0.928058 0.240083 0.240083 1

4
0.924541 0.236296 0.236296 1

4
0.927804 0.243563 0.243563 1

4
0.929294 0.243014 0.243014 1

4
0.923063 0.229588 0.229588 1

4
0.921195 0.229305 0.229305 1

4
0.921835 0.226819 0.226819 1

4
0.928295 0.23688 0.23688 1

4
0.924777 0.233143 0.233143 1

4
0.92542 0.230616 0.230616 1

4
0.928096 0.232296 0.232296 1

4
0.929584 0.235399 0.235399 1

4
0.926416 0.236588 0.236588 1

4
0.931179 0.243315 0.243315 1

4
0.93255 0.241963 0.241963 1

4
0.931232 0.238877 0.238877 1

4
0.926861 0.229495 0.229495 1

4
0.943771 0.238816 0.238816 1

4
0.94144 0.239229 0.239229 1

4
0.937471 0.235927 0.235927 1

4
0.945159 0.241206 0.241206 1

4
0.951368 0.243585 0.243585 1

4
0.944178 0.244509 0.244509 1

4
0.941041 0.242126 0.242126 1

4
0.93885 0.238288 0.238288 1

4
1 0.336844 0.336844 0.98441

4
1 0.332762 0.332762 0.987112

4
1 0.332303 0.332303 0.984443

4
1 0.334803 0.334803 0.987036

4
1 0.330289 0.330289 0.987069

4
1 0.328256 0.328256 0.992739

4
1 0.326827 0.326827 0.991518

4
0.983863 0.306709 0.306709 1

4
0.987957 0.312197 0.312197 1

4
0.988804 0.310949 0.310949 1

4
0.989253 0.30833 0.30833 1

4
0.98594 0.312111 0.312111 1

4
0.979932 0.306754 0.306754 1

4
0.982942 0.310827 0.310827 1

4
0.990891 0.316426 0.316426 1

4
0.987032 0.31639 0.31639 1

4
0.99219 0.312506 0.312506 1

4
0.995016 0.317126 0.317126 1

4
0.97928 0.275136 0.275136 1

4
0.978773 0.272746 0.272746 1

4
0.986205 0.280554 0.280554 1

4
0.983973 0.276565 0.276565 1

4
0.983373 0.279791 0.279791 1

4
0.976345 0.271981 0.271981 1

4
0.980933 0.279006 0.279006 1

4
0.978151 0.277714 0.277714 1

4
0.930924 0.246841 0.246841 1

4
0.932068 0.24992 0.24992 1

4
0.931427 0.251274 0.251274 1

4
0.933565 0.249357 0.249357 1

4
0.933792 0.244916 0.244916 1

4
0.937103 0.256154 0.256154 1

4
0.934069 0.253835 0.253835 1

4
0.937898 0.26055 0.26055 1

4
0.941455 0.263528 0.263528 1

4
0.936459 0.257541 0.257541 1

4
0.937738 0.264257 0.264257 1

4
0.939849 0.264192 0.264192 1

4
0.934861 0.258191 0.258191 1

4
0.942821 0.270589 0.270589 1

4
0.944944 0.270522 0.270522 1

4
0.950805 0.278483 0.278483 1

4
0.943917 0.27351 0.27351 1

4
0.948446 0.277702 0.277702 1

4
0.941294 0.267278 0.267278 1

4
0.940272 0.27023 0.27023 1

4
1 0.323689 0.323689 0.97617

4
1 0.322515 0.322515 0.97517

4
1 0.317141 0.317141 0.984151

4
1 0.324506 0.324506 0.977619

4
1 0.320879 0.320879 0.981072

4
1 0.326279 0.326279 0.971837

4
1 0.331801 0.331801 0.970932

4
1 0.331909 0.331909 0.968523

4
1 0.328294 0.328294 0.974279

4
1 0.330029 0.330029 0.966474

4
1 0.330704 0.330704 0.96753

4
1 0.328256 0.328256 0.966748

4
1 0.32775 0.32775 0.965332

4
1 0.355975 0.355975 0.945031

4
1 0.360202 0.360202 0.943069

4
1 0.356189 0.356189 0.941789

4
1 0.343068 0.343068 0.955938

4
1 0.340439 0.340439 0.959285

4
1 0.335724 0.335724 0.963178

4
1 0.337503 0.337503 0.958671

4
1 0.333237 0.333237 0.962399

4
1 0.355463 0.355463 0.947816

4
1 0.348599 0.348599 0.953114

4
1 0.35334 0.35334 0.951347

4
1 0.345592 0.345592 0.952504

4
1 0.351502 0.351502 0.946529

4
1 0.348983 0.348983 0.949489

4
1 0.357536 0.357536 0.949372

4
1 0.347972 0.347972 0.962992

4
1 0.34428 0.34428 0.963815

4
1 0.339844 0.339844 0.967744

4
1 0.350632 0.350632 0.954679

4
1 0.345477 0.345477 0.958813

4
1 0.341135 0.341135 0.960333

4
1 0.353931 0.353931 0.956219

4
1 0.348727 0.348727 0.96036

4
1 0.350176 0.350176 0.957036

4
1 0.340581 0.340581 0.965099

4
1 0.340691 0.340691 0.962704

4
1 0.336301 0.336301 0.966629

4
1 0.332638 0.332638 0.972373

4
1 0.335044 0.335044 0.972597

4
1 0.335689 0.335689 0.958942

4
1 0.343321 0.343321 0.952204

4
1 0.337714 0.337714 0.954651

4
1 0.341703 0.341703 0.950936

4
1 0.335172 0.335172 0.957538

4
1 0.330936 0.330936 0.961262

4
1 0.349192 0.349192 0.946231

4
1 0.347546 0.347546 0.944971

4
1 0.345055 0.345055 0.947926

4
1 0.339419 0.339419 0.950361

4
1 0.332932 0.332932 0.95696

4
1 0.335688 0.335688 0.951805

4
1 0.332731 0.332731 0.953107

4
1 0.330098 0.330098 0.956624

4
1 0.339653 0.339653 0.948101

4
1 0.326221 0.326221 0.96257

4
1 0.327613 0.327613 0.959517

4
1 0.33296 0.33296 0.95084

4
1 0.296921 0.296921 0.998409

4
1 0.300722 0.300722 0.994541

4
1 0.294025 0.294025 0.998991

4
1 0.299368 0.299368 0.997892

4
0.999578 0.298377 0.298377 1

4
0.994465 0.290128 0.290128 1

4
0.997648 0.292013 0.292013 1

4
0.996678 0.296503 0.296503 1

4
0.99486 0.293028 0.293028 1

4
1 0.302324 0.302324 0.996547

4
1 0.305504 0.305504 0.994358

4
1 0.30381 0.30381 0.999985

4
1 0.304622 0.304622 0.996879

4
0.998023 0.299835 0.299835 1

4
0.963513 0.305382 0.305382 1

4
0.958491 0.300011 0.300011 1

4
0.959606 0.30325 0.30325 1

4
0.960418 0.30067 0.30067 1

4
0.964166 0.302362 0.302362 1

4
0.967582 0.308255 0.308255 1

4
0.961548 0.300594 0.300594 1

4
0.968749 0.273417 0.273417 1

4
0.966484 0.274799 0.274799 1

4
0.968182 0.274826 0.274826 1

4
0.963083 0.270771 0.270771 1

4
0.960006 0.266337 0.266337 1

4
0.972153 0.27775 0.27775 1

4
0.976082 0.278705 0.278705 1

4
0.96988 0.279154 0.279154 1

4
0.964772 0.275035 0.275035 1

4
0.966185 0.279317 0.279317 1

4
0.982125 0.263078 0.263078 1

4
0.987545 0.266623 0.266623 1

4
0.989702 0.27028 0.27028 1

4
1 0.307006 0.307006 0.997788

4
1 0.309874 0.309874 0.997579

4
0.994928 0.301113 0.301113 1

4
0.997114 0.301906 0.301906 1

4
0.998549 0.308592 0.308592 1

4
0.996235 0.305081 0.305081 1

4
1 0.311072 0.311072 0.991744

4
1 0.313978 0.313978 0.991536

4
1 0.318057 0.318057 0.985714

4
1 0.318105 0.318105 0.988553

4
1 0.310702 0.310702 0.99448

4
1 0.317727 0.317727 0.99128

4
1 0.312762 0.312762 0.998133

4
1 0.315363 0.315363 0.995328

4
0.951761 0.2601 0.2601 1

4
0.958282 0.268293 0.268293 1

4
0.95522 0.2639 0.2639 1

4
0.95637 0.268922 0.268922 1

4
0.946934 0.25104 0.25104 1

4
0.951785 0.258426 0.258426 1

4
0.945028 0.25187 0.25187 1

4
0.958306 0.266567 0.266567 1

4
0.959459 0.271639 0.271639 1

4
0.962784 0.275223 0.275223 1

4
0.942391 0.245018 0.245018 1

4
0.943629 0.248247 0.248247 1

4
0.979097 0.31109 0.31109 1

4
0.982105 0.315221 0.315221 1

4
0.976385 0.310163 0.310163 1

4
0.977997 0.31513 0.31513 1

4
0.981018 0.310959 0.310959 1

4
0.975304 0.305968 0.305968 1

4
0.9753 0.302914 0.302914 1

4
0.991618 0.28332 0.28332 1

4
0.994792 0.285161 0.285161 1

4
0.989375 0.279291 0.279291 1

4
0.993885 0.287131 0.287131 1

4
0.988473 0.28122 0.28122 1

4
0.98787 0.284501 0.284501 1

4
0.991108 0.288129 0.288129 1

4
0.958804 0.275864 0.275864 1

4
0.957007 0.276173 0.276173 1

4
0.962833 0.283088 0.283088 1

4
0.962126 0.279504 0.279504 1

4
0.958004 0.279496 0.279496 1

4
0.955751 0.272581 0.272581 1

4
0.960864 0.275868 0.275868 1

4
0.954955 0.276169 0.276169 1

4
0.964902 0.283092 0.283092 1

4
0.960768 0.283084 0.283084 1

4
0.963423 0.287068 0.287068 1

4
0.966354 0.289842 0.289842 1

4
1 0.325443 0.325443 0.979171

4
1 0.328245 0.328245 0.978765

4
1 0.331503 0.331503 0.97595

4
1 0.321854 0.321854 0.98546

4
1 0.324576 0.324576 0.982222

4
1 0.324625 0.324625 0.985051

4
1 0.325844 0.325844 0.986348

4
1 0.322429 0.322429 0.990793

4
1 0.319508 0.319508 0.992334

4
1 0.330619 0.330619 0.978991

4
1 0.3286 0.3286 0.983107

4
1 0.331861 0.331861 0.980279

4
1 0.326376 0.326376 0.988837

4
0.987734 0.292503 0.292503 1

4
0.992946 0.297168 0.297168 1

4
0.991135 0.293686 0.293686 1

4
0.99207 0.300293 0.300293 1

4
0.984871 0.286187 0.286187 1

4
0.982239 0.282412 0.282412 1

4
0.988261 0.287345 0.287345 1

4
0.982078 0.284861 0.284861 1

4
0.988099 0.289837 0.289837 1

4
0.993313 0.29446 0.29446 1

4
1 0.285021 0.285021 0.98899

4
1 0.279685 0.279685 0.991106

4
1 0.281192 0.281192 0.98751

4
1 0.28435 0.28435 0.986298

4
1 0.282245 0.282245 0.99289

4
1 0.279391 0.279391 0.993368

4
1 0.289583 0.289583 0.985783

4
1 0.286622 0.286622 0.985972

4
1 0.284501 0.284501 0.992562

4
1 0.278133 0.278133 0.989297

4
1 0.276351 0.276351 0.995165

4
1 0.282772 0.282772 0.984497

4
1 0.280973 0.280973 0.981461

4
1 0.282903 0.282903 0.981587

4
1 0.288901 0.288901 0.9831

4
1 0.293665 0.293665 0.980297

4
1 0.291198 0.291198 0.980236

4
1 0.286079 0.286079 0.980382

4
1 0.288221 0.288221 0.980424

4
0.992145 0.2713 0.2713 1

4
0.993116 0.269886 0.269886 1

4
0.998913 0.278847 0.278847 1

4
0.99989 0.277394 0.277394 1

4
1 0.278881 0.278881 0.996956

4
0.995284 0.273588 0.273588 1

4
0.999409 0.274456 0.274456 1

4
0.995313 0.310584 0.310584 1

4
0.993007 0.30705 0.30705 1

4
0.995468 0.314455 0.314455 1

4
0.995681 0.307753 0.307753 1

4
0.998148 0.315175 0.315175 1

4
1 0.314515 0.314515 0.999194

4
0.961944 0.295654 0.295654 1

4
0.965511 0.298825 0.298825 1

4
0.967099 0.305284 0.305284 1

4
0.967304 0.303452 0.303452 1

4
0.961068 0.297697 0.297697 1

4
0.957677 0.287507 0.287507 1

4
0.960724 0.289653 0.289653 1

4
0.963768 0.29504 0.29504 1

4
0.959333 0.293926 0.293926 1

4
0.956769 0.290049 0.290049 1

4
0.955301 0.2867 0.2867 1

4
0.955551 0.281325 0.281325 1

4
0.958192 0.285284 0.285284 1

4
0.952783 0.282377 0.282377 1

4
0.958592 0.283425 0.283425 1

4
0.964166 0.290191 0.290191 1

4
0.964286 0.292759 0.292759 1

4
0.96722 0.295588 0.295588 1

4
0.969843 0.295981 0.295981 1

4
0.969969 0.301611 0.301611 1

4
0.969964 0.2986 0.2986 1

4
0.969138 0.302822 0.302822 1

4
0.972598 0.302011 0.302011 1

4
0.97177 0.306281 0.306281 1

4
1 0.314458 0.314458 0.963756

4
1 0.31447 0.31447 0.966252

4
1 0.310308 0.310308 0.966104

4
1 0.308343 0.308343 0.969605

4
1 0.317256 0.317256 0.958483

4
1 0.31674 0.31674 0.96324

4
1 0.312548 0.312548 0.963093

4
1 0.320751 0.320751 0.959966

4
1 0.320541 0.320541 0.957566

4
1 0.31307 0.31307 0.960819

4
1 0.313827 0.313827 0.958014

4
1 0.321076 0.321076 0.955306

4
1 0.3194 0.3194 0.965514

4
1 0.320763 0.320763 0.962452

4
1 0.30917 0.30917 0.962621

4
1 0.306471 0.306471 0.968938

4
1 0.305673 0.305673 0.966481

4
1 0.306412 0.306412 0.963659

4
1 0.306136 0.306136 0.96143

4
1 0.303737 0.303737 0.969983

4
1 0.30167 0.30167 0.973116

4
1 0.302672 0.302672 0.965286

4
1 0.298989 0.298989 0.969419

4
1 0.300884 0.300884 0.970648

4
1 0.299183 0.299183 0.964615

4
1 0.298719 0.298719 0.967177

4
1 0.295543 0.295543 0.968746

4
1 0.293247 0.293247 0.967863

4
1 0.292792 0.292792 0.970434

4
1 0.296954 0.296954 0.97255

4
1 0.290614 0.290614 0.974396

4
1 0.292789 0.292789 0.974439

4
1 0.288039 0.288039 0.969952

4
1 0.28639 0.28639 0.973384

4
1 0.288357 0.288357 0.973508

4
1 0.283946 0.283946 0.973788

4
1 0.297141 0.297141 0.975734

4
1 0.292973 0.292973 0.977628

4
1 0.28426 0.28426 0.977359

4
1 0.288354 0.288354 0.977526

4
1 0.327415 0.327415 0.955654

4
1 0.327202 0.327202 0.953266

4
1 0.323444 0.323444 0.962233

4
1 0.324613 0.324613 0.956783

4
0.931032 0.234255 0.234255 1

4
0.932213 0.233075 0.233075 1

4
0.933846 0.24045 0.24045 1

4
0.937212 0.243092 0.243092 1

4
0.938443 0.246296 0.246296 1

4
0.935887 0.239993 0.239993 1

4
0.933707 0.236188 0.236188 1

4
0.940494 0.245828 0.245828 1

4
0.937073 0.238784 0.238784 1

4
0.973168 0.313064 0.313064 1

4
0.973374 0.311186 0.311186 1

4
0.970731 0.309366 0.309366 1

4
0.950369 0.289707 0.289707 1

4
0.947257 0.287635 0.287635 1

4
0.949735 0.286514 0.286514 1

4
0.94573 0.282559 0.282559 1

4
0.951492 0.292553 0.292553 1

4
0.955727 0.297841 0.297841 1

4
0.956536 0.295308 0.295308 1

4
0.95398 0.291412 0.291412 1

4
0.952598 0.295711 0.295711 1

4
0.949399 0.293392 0.293392 1

4
0.953626 0.298695 0.298695 1

4
0.955897 0.292053 0.292053 1

4
0.95188 0.284873 0.284873 1

4
0.949324 0.284223 0.284223 1

4
0.945881 0.277334 0.277334 1

4
0.943341 0.2767 0.2767 1

4
0.947866 0.280941 0.280941 1

4
0.962778 0.254909 0.254909 1

4
0.961578 0.252011 0.252011 1

4
0.957356 0.249553 0.249553 1

4
0.9649 0.254181 0.254181 1

4
0.959466 0.24884 0.24884 1

4
1 0.324367 0.324367 0.994516

4
1 0.322701 0.322701 0.998716

4
1 0.321296 0.321296 0.997488

4
1 0.32003 0.32003 0.994838

4
1 0.318386 0.318386 0.999039

